c SAT Generator for power-law distributed variable frequencies
c -g u -v 20 -c 91 -k 3 -p 2.750000 -b 3.200000 -f /home/schmidt/Devel/ni-kop-sat/data/ensemble/ruf20-91/ruf20-91-139 -u 1 -U 1 -s 2390553018
p cnf 20 91
-3 8 16 0
-6 -10 -17 0
6 -10 -20 0
-2 5 -10 0
11 -15 -20 0
-5 -12 19 0
2 -4 -11 0
3 7 9 0
-8 13 -15 0
-16 17 -18 0
-12 -15 19 0
-5 9 11 0
5 14 20 0
-6 -18 -20 0
-2 -7 -9 0
-1 8 -17 0
-5 13 -19 0
-2 -10 -18 0
-10 15 17 0
-1 -9 -10 0
-10 -15 -20 0
3 -13 16 0
10 -13 -16 0
8 10 -11 0
3 9 13 0
-2 3 -18 0
4 -11 20 0
9 -15 -16 0
-4 -9 -16 0
3 -6 -17 0
-4 -18 19 0
-2 -6 -9 0
-4 9 16 0
1 -9 -12 0
-1 9 -15 0
-12 17 -20 0
-2 -3 13 0
-1 -4 10 0
-3 -6 -7 0
3 7 -16 0
6 10 -13 0
1 11 -13 0
-5 11 20 0
-7 -15 -19 0
5 13 14 0
-13 14 19 0
-1 -7 10 0
-9 16 19 0
10 -12 13 0
-2 14 -18 0
-5 14 -15 0
1 -4 -17 0
13 -15 18 0
-14 -15 -16 0
-6 -8 9 0
-5 -15 16 0
-3 4 -8 0
1 -5 18 0
-9 -15 -20 0
4 12 19 0
-1 12 -15 0
8 -11 -18 0
1 5 13 0
-5 -6 14 0
2 -9 -11 0
-3 -9 -14 0
-5 -9 -13 0
-1 12 16 0
7 -17 19 0
-1 -14 16 0
-10 11 -19 0
9 -11 17 0
-6 -8 11 0
-3 -7 -17 0
-3 -6 -19 0
5 12 17 0
-3 -12 15 0
3 13 16 0
4 8 -9 0
4 -9 -12 0
-4 -18 -19 0
-1 -2 -14 0
3 -6 -19 0
-3 -7 19 0
5 -12 -13 0
3 -5 13 0
-3 -5 -15 0
-6 8 -11 0
12 13 -14 0
-1 -12 15 0
-3 8 15 0
